NAME : pairopt.-190620.tour
COMMENT : Length = -190620
COMMENT : Found by LKH-3 [Keld Helsgaun] Tue May  2 14:57:43 2023
TYPE : TOUR
DIMENSION : 28
TOUR_SECTION
1
2
17
8
9
23
14
24
25
28
3
27
22
21
26
20
19
16
11
18
15
13
6
10
7
4
12
5
-1
EOF
